SCIP version 5.0.0 [precision: 8 byte] [memory: block] [mode: optimized] [LP solver: NONE] [GitHash: 3bbd232]
Copyright (C) 2002-2017 Konrad-Zuse-Zentrum fuer Informationstechnik Berlin (ZIB)

External codes: 
  Readline EditLine w  GNU library for command line editing (gnu.org/s/readline)
  CppAD 20160000.1     Algorithmic Differentiation of C++ algorithms developed by B. Bell (www.coin-or.org/CppAD)
  ZLIB 1.2.5           General purpose compression library by J. Gailly and M. Adler (zlib.net)
  GMP 6.1.2            GNU Multiple Precision Arithmetic Library developed by T. Granlund (gmplib.org)

user parameter file <scip.set> not found - using default parameters

read problem <../../Split_data/output/biodeg/3/1_sample_biodeg.logreg>
============

File name	:	../../Split_data/output/biodeg/3/1_sample_biodeg.logreg
Problem name 	:	1_sample_biodeg
Number of data	:	844
Number of var	:	41
The given data has linear dependence
1 sets of column vector are linearly dependent:
{ 19}, 

[dim=1] time: 0.040278
[dim=2] time: 0.079586
[dim=3] time: 0.125515
[dim=4] time: 0.160327
[dim=5] time: 0.192968
[dim=6] time: 0.221642
[dim=7] time: 0.257422
[dim=8] time: 0.284567
[dim=9] time: 0.314834
[dim=10] time: 0.334263
[dim=11] time: 0.354754
[dim=12] time: 0.378106
[dim=13] time: 0.396734
[dim=14] time: 0.420526
[dim=15] time: 0.437207
[dim=16] time: 0.455292
[dim=17] time: 0.470797
[dim=18] time: 0.486258
[dim=19] time: 0.501401
[dim=20] time: 0.516155
[dim=21] Time of forward = 0.530121sec.
AIC: 504.107
k: 20

[dim=40] time: 0.159344
[dim=39] time: 0.214007
[dim=38] time: 0.250326
[dim=37] time: 0.294608
[dim=36] time: 0.346322
[dim=35] time: 0.394729
[dim=34] time: 0.470231
[dim=33] time: 0.514233
[dim=32] time: 0.555314
[dim=31] time: 0.592943
[dim=30] time: 0.640013
[dim=29] time: 0.679214
[dim=28] time: 0.716277
[dim=27] time: 0.766821
[dim=26] time: 0.790314
[dim=25] time: 0.815773
[dim=24] time: 0.838038
[dim=23] Time of backward = 0.863783sec.
AIC: 504.875
k: 24
